\ Model Optimal Location
\ LP format - for model browsing. Use MPS format to capture full model detail.
Maximize
  200 assign[‰] + 160 assign[˜œ] + 160 assign[Äü] + 170 assign[lø]
Subject To
Bounds
End
